************************************************************************
file with basedata            : j60_38.bas
initial value random generator: 1527298027
************************************************************************
projects                      :  1
jobs (incl. supersource/sink ):  62
horizon                       :  365
RESOURCES
  - renewable                 :  4   R
  - nonrenewable              :  0   N
  - doubly constrained        :  0   D
************************************************************************
PROJECT INFORMATION:
pronr.  #jobs rel.date duedate tardcost  MPM-Time
    1     60      0       65       46       65
************************************************************************
PRECEDENCE RELATIONS:
jobnr.    #modes  #successors   successors
   1        1          3           2   3   4
   2        1          3          13  35  38
   3        1          3           6   7   8
   4        1          3           5  18  45
   5        1          2           9  14
   6        1          3          10  12  25
   7        1          1          45
   8        1          3          11  22  58
   9        1          3          17  32  36
  10        1          3          15  20  33
  11        1          1          53
  12        1          3          24  30  35
  13        1          2          19  24
  14        1          3          16  21  38
  15        1          2          26  35
  16        1          2          48  52
  17        1          1          23
  18        1          2          31  57
  19        1          3          29  41  45
  20        1          1          58
  21        1          3          27  28  40
  22        1          2          24  37
  23        1          1          30
  24        1          2          46  48
  25        1          3          40  44  46
  26        1          3          31  38  41
  27        1          2          33  39
  28        1          2          42  54
  29        1          3          30  42  49
  30        1          2          47  52
  31        1          2          34  53
  32        1          1          44
  33        1          1          47
  34        1          2          40  55
  35        1          2          43  51
  36        1          2          41  53
  37        1          1          54
  38        1          1          55
  39        1          2          42  50
  40        1          1          54
  41        1          2          44  57
  42        1          2          51  55
  43        1          1          49
  44        1          2          51  58
  45        1          2          49  50
  46        1          1          50
  47        1          1          60
  48        1          1          61
  49        1          1          52
  50        1          1          57
  51        1          2          56  59
  52        1          1          60
  53        1          1          60
  54        1          1          56
  55        1          2          56  59
  56        1          1          61
  57        1          1          61
  58        1          1          59
  59        1          1          62
  60        1          1          62
  61        1          1          62
  62        1          0        
************************************************************************
REQUESTS/DURATIONS:
jobnr. mode duration  R 1  R 2  R 3  R 4
------------------------------------------------------------------------
  1      1     0       0    0    0    0
  2      1     7       4    4    2    0
  3      1     9       0    8    0    9
  4      1     3       0    6    0    9
  5      1     2       0    0    0    2
  6      1     2       0    0    0    3
  7      1     7       0    9    0    5
  8      1     5       0    0    6    0
  9      1     6       8    0   10    0
 10      1     7       8    0    0    0
 11      1     4       1    2    9    7
 12      1    10       8    0    0    5
 13      1     5       3    6   10    0
 14      1     2       8    2    4    0
 15      1     2       3    0    7    0
 16      1    10       6    3    8    0
 17      1     8       8    0    0    7
 18      1    10       0    5    7    0
 19      1     6       0    2    9    0
 20      1     4       0    0    0   10
 21      1     7       9    9    0    0
 22      1    10       0    0    1    0
 23      1     9       0    0    1    0
 24      1     2       6    2    6    3
 25      1     9       0    9    0    0
 26      1     7       0    0    8    0
 27      1     4       9    7    0    0
 28      1    10       0    0    0    8
 29      1     8       1    0    0    6
 30      1     6       5   10    9    0
 31      1     4       1    8    0    1
 32      1     4       0    7    9    3
 33      1     1       3    0    0    8
 34      1     8       0   10    0    0
 35      1     2       0    0    6    8
 36      1     1       3    0    0    0
 37      1     6       4    0    0    0
 38      1     7       5    0    6    0
 39      1     9       0    9    0    0
 40      1     2       0    0   10    0
 41      1     1       0    8    0    8
 42      1    10       0    2    5   10
 43      1     8       5    1    0    4
 44      1     3       3    1    9    7
 45      1     8       2    0    3    7
 46      1     7       1    0    3    7
 47      1     4       6    0    0    1
 48      1     8       0    9    0    0
 49      1     8       0    8    0    0
 50      1     4       1    0    4    0
 51      1     8       0    6    0    4
 52      1     9       3    0    0    0
 53      1     4       0    7    0    0
 54      1     4       1    0    0    5
 55      1     9      10    1    8    0
 56      1     9       8    5    0    0
 57      1     9       0    0    3    1
 58      1     8       0    4    4    0
 59      1     4       0    3    1    1
 60      1     7       0    0    2   10
 61      1     8       6    0    2    8
 62      1     0       0    0    0    0
************************************************************************
RESOURCEAVAILABILITIES:
  R 1  R 2  R 3  R 4
   28   30   26   31
************************************************************************
